7
0, 224, 124, 814, 827, 149, 736
224, 0, 185, 725, 787, 80, 867
124, 185, 0, 690, 708, 110, 689
814, 725, 690, 0, 185, 727, 777
827, 787, 708, 185, 0, 770, 628
149, 80, 110, 727, 770, 0, 799
736, 867, 689, 777, 628, 799, 0
